NAME 
ROWS
 N  OBJ
 L  R0      
 L  R1      
 L  R2      
 L  R3      
 L  R4      
 L  R5      
 L  R6      
 L  R7      
 L  R8      
 L  R9      
COLUMNS
    MARKER    'MARKER'                 'INTORG'
    x[0]      OBJ       10
    x[0]      R0        6
    x[0]      R1        -7
    x[0]      R2        6
    x[0]      R3        -3
    x[0]      R4        4
    x[0]      R6        -1
    x[0]      R8        1
    x[1]      OBJ       4
    x[1]      R0        -10
    x[1]      R1        7
    x[1]      R2        -4
    x[1]      R3        -10
    x[1]      R9        -1
    x[2]      OBJ       7
    x[2]      R0        10
    x[2]      R1        -8
    x[2]      R2        3
    x[2]      R3        -7
    x[2]      R4        -7
    x[2]      R9        -1
    x[3]      OBJ       3
    x[3]      R0        -2
    x[3]      R1        5
    x[3]      R2        -7
    x[3]      R3        -7
    x[3]      R4        7
    x[3]      R5        1
    x[3]      R8        -1
    x[4]      OBJ       8
    x[4]      R0        1
    x[4]      R1        -10
    x[4]      R2        -3
    x[4]      R3        -10
    x[4]      R4        5
    x[4]      R6        1
    x[4]      R7        1
    x[4]      R9        1
    x[5]      OBJ       -6
    x[5]      R0        9
    x[5]      R1        9
    x[5]      R2        4
    x[5]      R3        4
    x[5]      R4        -6
    x[5]      R5        1
    x[5]      R8        1
    x[5]      R9        1
    x[6]      OBJ       -3
    x[6]      R1        2
    x[6]      R2        7
    x[6]      R3        -7
    x[6]      R4        -5
    x[6]      R5        -1
    x[6]      R6        -1
    x[6]      R7        -1
    x[6]      R8        -1
    x[6]      R9        -1
    x[7]      OBJ       -7
    x[7]      R0        7
    x[7]      R1        -10
    x[7]      R2        6
    x[7]      R3        -6
    x[7]      R4        -1
    x[7]      R5        1
    x[7]      R6        -1
    x[7]      R8        -1
    x[7]      R9        1
    x[8]      OBJ       2
    x[8]      R0        8
    x[8]      R1        10
    x[8]      R2        4
    x[8]      R3        10
    x[8]      R4        -6
    x[8]      R6        -1
    x[8]      R7        1
    x[9]      OBJ       7
    x[9]      R1        -9
    x[9]      R2        3
    x[9]      R3        -10
    x[9]      R4        -2
    x[9]      R5        -1
    x[9]      R6        -1
    x[9]      R7        1
    x[9]      R8        -1
    x[9]      R9        -1
    y[0]      OBJ       -4
    y[0]      R0        -3
    y[0]      R1        3
    y[0]      R2        9
    y[0]      R3        -2
    y[0]      R4        6
    y[0]      R5        30
    y[0]      R6        -48
    y[0]      R7        -94
    y[0]      R8        -51
    y[0]      R9        24
    y[1]      OBJ       -3
    y[1]      R0        -4
    y[1]      R1        10
    y[1]      R2        5
    y[1]      R3        4
    y[1]      R4        -2
    y[1]      R5        13
    y[1]      R6        51
    y[1]      R7        -76
    y[1]      R8        -12
    y[1]      R9        85
    y[2]      OBJ       -1
    y[2]      R0        -3
    y[2]      R2        -9
    y[2]      R3        4
    y[2]      R4        -4
    y[2]      R5        63
    y[2]      R6        -82
    y[2]      R7        -100
    y[2]      R8        98
    y[2]      R9        -16
    y[3]      OBJ       -6
    y[3]      R0        5
    y[3]      R1        2
    y[3]      R2        -1
    y[3]      R3        -2
    y[3]      R4        -4
    y[3]      R5        -3
    y[3]      R6        -21
    y[3]      R7        76
    y[3]      R8        65
    y[3]      R9        -57
    y[4]      OBJ       -2
    y[4]      R0        2
    y[4]      R1        4
    y[4]      R2        -7
    y[4]      R3        5
    y[4]      R4        4
    y[4]      R5        -21
    y[4]      R6        79
    y[4]      R7        56
    y[4]      R8        61
    y[4]      R9        -7
    y[5]      OBJ       -3
    y[5]      R0        9
    y[5]      R1        4
    y[5]      R2        9
    y[5]      R3        -3
    y[5]      R5        -85
    y[5]      R6        60
    y[5]      R7        29
    y[5]      R8        40
    y[5]      R9        -80
    y[6]      OBJ       -10
    y[6]      R0        -10
    y[6]      R1        2
    y[6]      R2        -8
    y[6]      R4        -6
    y[6]      R5        43
    y[6]      R6        -63
    y[6]      R7        -79
    y[6]      R8        -63
    y[6]      R9        80
    y[7]      OBJ       -6
    y[7]      R0        -7
    y[7]      R1        1
    y[7]      R2        -9
    y[7]      R3        4
    y[7]      R4        -10
    y[7]      R5        -34
    y[7]      R6        -70
    y[7]      R7        -100
    y[7]      R8        -21
    y[7]      R9        59
    y[8]      OBJ       -9
    y[8]      R0        9
    y[8]      R1        -2
    y[8]      R2        -7
    y[8]      R3        9
    y[8]      R4        -6
    y[8]      R5        62
    y[8]      R6        -60
    y[8]      R7        -24
    y[8]      R8        93
    y[8]      R9        -75
    y[9]      OBJ       -1
    y[9]      R0        5
    y[9]      R1        -10
    y[9]      R2        4
    y[9]      R3        8
    y[9]      R4        2
    y[9]      R5        21
    y[9]      R6        78
    y[9]      R7        60
    y[9]      R8        -94
    y[9]      R9        -37
    MARKER    'MARKER'                 'INTEND'
RHS
    RHS1      R0        8
    RHS1      R1        0.75
    RHS1      R2        1.25
    RHS1      R3        -4.75
    RHS1      R4        -7.75
    RHS1      R5        22
    RHS1      R6        -20
    RHS1      R7        -62
    RHS1      R8        28
    RHS1      R9        -6
BOUNDS
 BV BND1      x[0]    
 BV BND1      x[1]    
 BV BND1      x[2]    
 BV BND1      x[3]    
 BV BND1      x[4]    
 BV BND1      x[5]    
 BV BND1      x[6]    
 BV BND1      x[7]    
 BV BND1      x[8]    
 BV BND1      x[9]    
 BV BND1      y[0]    
 BV BND1      y[1]    
 BV BND1      y[2]    
 BV BND1      y[3]    
 BV BND1      y[4]    
 BV BND1      y[5]    
 BV BND1      y[6]    
 BV BND1      y[7]    
 BV BND1      y[8]    
 BV BND1      y[9]    
ENDATA
